<number of tasks>
250

<cycle time>
1000

<order strength>
0.597


<task times>
1 127
2 168
3 119
4 160
5 103
6 231
7 205
8 86
9 159
10 141
11 227
12 89
13 114
14 121
15 282
16 174
17 50
18 175
19 261
20 144
21 57
22 236
23 59
24 327
25 22
26 181
27 102
28 174
29 159
30 28
31 229
32 200
33 75
34 90
35 318
36 154
37 26
38 272
39 196
40 57
41 275
42 32
43 120
44 158
45 271
46 173
47 161
48 150
49 249
50 92
51 128
52 41
53 82
54 68
55 243
56 346
57 156
58 176
59 102
60 155
61 118
62 86
63 21
64 143
65 126
66 153
67 78
68 195
69 184
70 187
71 365
72 127
73 153
74 69
75 248
76 166
77 76
78 58
79 223
80 145
81 143
82 123
83 319
84 249
85 176
86 182
87 76
88 158
89 180
90 44
91 71
92 58
93 64
94 224
95 153
96 233
97 21
98 228
99 134
100 64
101 231
102 217
103 155
104 180
105 37
106 285
107 128
108 204
109 62
110 145
111 99
112 166
113 284
114 209
115 157
116 33
117 264
118 53
119 187
120 67
121 80
122 203
123 292
124 236
125 68
126 203
127 100
128 45
129 167
130 45
131 155
132 105
133 125
134 127
135 303
136 78
137 118
138 87
139 34
140 156
141 73
142 122
143 52
144 264
145 162
146 85
147 291
148 256
149 100
150 64
151 331
152 98
153 229
154 173
155 191
156 50
157 151
158 69
159 149
160 189
161 139
162 141
163 21
164 145
165 21
166 52
167 180
168 39
169 213
170 40
171 22
172 26
173 160
174 87
175 154
176 202
177 201
178 102
179 149
180 105
181 45
182 36
183 67
184 57
185 26
186 93
187 420
188 161
189 307
190 213
191 164
192 203
193 157
194 59
195 69
196 138
197 209
198 128
199 22
200 84
201 238
202 169
203 110
204 184
205 276
206 27
207 267
208 137
209 129
210 92
211 224
212 61
213 73
214 151
215 253
216 349
217 60
218 93
219 256
220 157
221 30
222 237
223 86
224 79
225 144
226 184
227 265
228 33
229 164
230 248
231 161
232 100
233 159
234 117
235 71
236 130
237 228
238 225
239 104
240 129
241 60
242 85
243 51
244 89
245 223
246 147
247 49
248 270
249 122
250 254

<precedence relations>
1,41
2,190
3,129
4,129
5,141
6,87
7,8
7,9
7,10
7,11
7,12
7,13
7,14
7,15
7,16
7,17
7,18
7,19
8,41
9,41
10,203
11,149
12,61
13,237
14,87
15,87
16,87
17,87
18,172
19,20
19,21
19,22
19,23
19,24
19,25
19,26
19,27
19,28
19,29
19,30
20,41
21,41
22,237
23,106
24,106
25,106
26,106
27,87
28,87
29,32
29,36
29,38
29,39
29,40
30,31
30,33
30,34
30,35
30,37
30,39
30,73
31,41
32,41
33,41
34,203
35,61
36,61
37,106
38,106
39,106
40,42
40,43
40,44
40,45
40,46
40,47
40,48
41,49
41,50
41,51
41,52
41,53
41,54
41,55
41,56
41,57
41,58
41,59
41,60
42,61
43,61
44,237
45,106
46,106
47,87
48,62
49,72
49,74
50,111
51,87
52,119
52,121
52,132
53,110
53,141
53,142
54,125
54,130
55,63
55,79
55,86
56,72
57,93
57,94
58,72
58,107
59,181
61,64
61,65
61,66
61,67
61,68
61,69
61,70
61,71
61,74
62,73
62,83
63,141
64,106
65,106
66,172
67,83
67,120
68,75
68,77
68,80
69,76
69,81
69,84
70,75
70,195
71,76
71,77
71,79
72,106
73,78
73,79
74,81
74,82
75,203
76,237
77,106
78,106
79,87
80,87
81,87
82,83
82,84
82,85
82,86
82,88
82,89
82,90
83,203
84,237
85,106
86,106
87,91
87,94
87,97
87,98
87,99
87,100
87,101
87,102
87,103
88,95
88,102
89,92
89,103
90,93
90,96
91,203
92,149
93,149
94,106
95,106
96,213
97,107
97,125
98,104
98,117
98,118
99,150
99,187
100,105
100,109
100,121
101,149
102,125
102,130
103,104
103,119
104,203
105,149
106,108
106,109
106,111
106,112
106,113
106,114
106,115
106,116
106,117
107,108
107,109
107,110
108,129
109,129
110,129
111,203
112,172
113,118
113,119
113,124
114,121
114,125
114,141
114,142
115,118
115,119
115,120
115,121
115,122
115,123
115,184
116,124
117,119
117,120
118,203
119,141
120,141
121,237
122,237
123,172
124,125
124,126
124,127
124,128
125,129
126,149
127,213
128,129
128,130
128,131
128,132
129,133
129,134
129,135
129,136
129,137
129,138
129,139
129,140
129,143
130,229
131,141
132,142
133,149
134,144
134,171
134,191
135,144
135,171
135,187
135,212
136,144
136,203
137,189
138,150
138,153
138,238
139,144
141,145
141,146
141,147
141,148
141,182
142,144
142,189
143,151
143,189
143,211
144,229
145,152
146,152
146,212
147,185
148,171
149,152
149,154
149,155
149,156
149,157
149,158
149,159
149,160
149,161
149,162
149,163
149,164
149,165
149,166
149,167
149,168
149,169
149,170
150,227
151,153
152,190
153,229
154,172
155,250
156,188
157,175
160,226
161,185
162,172
163,173
164,190
165,191
165,211
166,231
167,173
167,175
167,186
168,181
169,188
169,204
171,213
172,174
172,175
172,176
172,177
172,178
172,179
172,180
172,182
173,174
173,181
173,187
174,190
175,229
176,188
176,189
177,227
178,186
178,195
180,247
181,183
181,184
181,185
182,227
183,237
184,213
185,188
185,189
185,190
186,187
186,212
187,190
188,192
189,191
189,193
189,194
189,195
190,196
190,197
190,198
190,199
190,200
190,201
190,204
190,205
191,203
192,213
193,213
194,227
195,202
195,206
195,230
195,238
196,211
201,213
201,214
202,229
203,207
203,208
203,209
203,210
204,237
205,227
206,212
207,213
208,213
209,214
210,212
211,224
211,227
212,237
213,215
213,216
213,217
213,218
213,219
213,220
213,221
213,222
213,223
214,224
215,228
218,225
218,227
220,226
221,227
222,228
223,249
224,239
224,247
225,229
226,229
227,237
228,230
228,231
228,232
229,233
229,234
229,235
229,236
229,239
230,237
231,237
232,238
237,240
237,241
237,242
237,243
237,244
237,245
237,246
240,247
245,248
245,249
245,250
246,250

<end>
